(benchmark random_random69_smt
:extrafuns ((x0 BitVec[24]))
:extrafuns ((x1 BitVec[24]))
:extrafuns ((x2 BitVec[24]))
:extrafuns ((x3 BitVec[24]))
:extrafuns ((x4 BitVec[24]))
:extrafuns ((x5 BitVec[24]))
:extrafuns ((x6 BitVec[24]))
:extrafuns ((x7 BitVec[24]))
:extrafuns ((x8 BitVec[24]))
:extrafuns ((x9 BitVec[24]))
:extrafuns ((x10 BitVec[24]))
:extrafuns ((x11 BitVec[24]))
:extrafuns ((x12 BitVec[24]))
:extrafuns ((x13 BitVec[24]))
:extrafuns ((x14 BitVec[24]))
:extrafuns ((x15 BitVec[24]))
:extrafuns ((x16 BitVec[24]))
:extrafuns ((x17 BitVec[24]))
:extrafuns ((x18 BitVec[24]))
:extrafuns ((x19 BitVec[24]))


:formula (and (not (= (bvadd (bvmul bv13934422[24] x0) 
                        (bvadd (bvmul bv3367497[24] x1) 
                        (bvadd (bvmul bv6017695[24] x3) 
                        (bvadd (bvmul bv14078406[24] x4) 
                        (bvadd (bvmul bv3514452[24] x7) 
                        (bvadd (bvmul bv7336639[24] x9) 
                        (bvadd (bvmul bv13278744[24] x10) 
                        (bvadd (bvmul bv15586118[24] x15) (bvmul bv2798484[24] x18)))))))))
	              bv5525063[24]))
         (and (not (= (bvadd (bvmul bv14432687[24] x0) 
                        (bvadd (bvmul bv1022969[24] x2) 
                        (bvadd (bvmul bv11294211[24] x10) 
                        (bvadd (bvmul bv9906528[24] x11) (bvmul bv8544718[24] x16)))))
	              bv11962509[24]))
         (and (not (= (bvadd (bvmul bv12467078[24] x2) 
                        (bvadd (bvmul bv9883599[24] x3) 
                        (bvadd (bvmul bv13037068[24] x4) 
                        (bvadd (bvmul bv4442730[24] x6) 
                        (bvadd (bvmul bv5628747[24] x9) 
                        (bvadd (bvmul bv673544[24] x10) 
                        (bvadd (bvmul bv14886965[24] x13) 
                        (bvadd (bvmul bv4517807[24] x15) 
                        (bvadd (bvmul bv5144626[24] x16) 
                        (bvadd (bvmul bv2614652[24] x17) 
                        (bvadd (bvmul bv3638933[24] x18) (bvmul bv1856063[24] x19))))))))))))
	              bv8468667[24]))
         (and (not (= (bvadd (bvmul bv14323142[24] x0) 
                        (bvadd (bvmul bv7526357[24] x4) 
                        (bvadd (bvmul bv3445750[24] x7) 
                        (bvadd (bvmul bv1471183[24] x8) 
                        (bvadd (bvmul bv13639618[24] x9) 
                        (bvadd (bvmul bv6284896[24] x11) (bvmul bv16196448[24] x15)))))))
	              bv9003424[24]))
         (and (not (= (bvadd (bvmul bv3296239[24] x0) 
                        (bvadd (bvmul bv842166[24] x2) 
                        (bvadd (bvmul bv1047229[24] x5) 
                        (bvadd (bvmul bv10547425[24] x6) 
                        (bvadd (bvmul bv16762137[24] x9) 
                        (bvadd (bvmul bv13624541[24] x11) 
                        (bvadd (bvmul bv9413431[24] x12) 
                        (bvadd (bvmul bv5692180[24] x15) 
                        (bvadd (bvmul bv13955017[24] x16) 
                        (bvadd (bvmul bv14804310[24] x17) (bvmul bv14836940[24] x18)))))))))))
	              bv15822738[24]))
         (and (not (= (bvadd (bvmul bv2198130[24] x2) 
                        (bvadd (bvmul bv12725185[24] x3) 
                        (bvadd (bvmul bv11513752[24] x4) 
                        (bvadd (bvmul bv9412894[24] x7) 
                        (bvadd (bvmul bv15537759[24] x9) 
                        (bvadd (bvmul bv12142063[24] x10) 
                        (bvadd (bvmul bv4181603[24] x11) 
                        (bvadd (bvmul bv11697670[24] x12) 
                        (bvadd (bvmul bv808802[24] x16) 
                        (bvadd (bvmul bv15645742[24] x18) (bvmul bv14152402[24] x19)))))))))))
	              bv224491[24]))
         (and (not (= (bvadd (bvmul bv2422622[24] x1) 
                        (bvadd (bvmul bv4763456[24] x2) 
                        (bvadd (bvmul bv5569133[24] x3) 
                        (bvadd (bvmul bv833166[24] x4) 
                        (bvadd (bvmul bv14761320[24] x10) 
                        (bvadd (bvmul bv1477888[24] x11) 
                        (bvadd (bvmul bv7176379[24] x12) 
                        (bvadd (bvmul bv2536037[24] x15) (bvmul bv865702[24] x17)))))))))
	              bv15018105[24]))
         (and (not (= (bvadd (bvmul bv16126268[24] x5) 
                        (bvadd (bvmul bv6723639[24] x9) 
                        (bvadd (bvmul bv7642534[24] x11) 
                        (bvadd (bvmul bv3121243[24] x13) 
                        (bvadd (bvmul bv4902568[24] x16) 
                        (bvadd (bvmul bv5057064[24] x17) (bvmul bv2203878[24] x19)))))))
	              bv8304307[24]))
         (and (not (= (bvadd (bvmul bv8768584[24] x0) 
                        (bvadd (bvmul bv15699364[24] x2) 
                        (bvadd (bvmul bv13806107[24] x3) 
                        (bvadd (bvmul bv8644191[24] x4) 
                        (bvadd (bvmul bv6463605[24] x5) 
                        (bvadd (bvmul bv13337381[24] x6) 
                        (bvadd (bvmul bv13619703[24] x9) 
                        (bvadd (bvmul bv16054332[24] x10) 
                        (bvadd (bvmul bv761623[24] x12) 
                        (bvadd (bvmul bv7440091[24] x13) 
                        (bvadd (bvmul bv13102796[24] x16) 
                        (bvadd (bvmul bv4629888[24] x18) (bvmul bv6692403[24] x19)))))))))))))
	              bv11175086[24]))
         (and (not (= (bvadd (bvmul bv15050299[24] x5) 
                        (bvadd (bvmul bv13075902[24] x6) 
                        (bvadd (bvmul bv12329888[24] x7) 
                        (bvadd (bvmul bv10880965[24] x8) 
                        (bvadd (bvmul bv10253033[24] x9) 
                        (bvadd (bvmul bv498041[24] x10) 
                        (bvadd (bvmul bv16342487[24] x12) 
                        (bvadd (bvmul bv16583898[24] x13) 
                        (bvadd (bvmul bv12909479[24] x15) 
                        (bvadd (bvmul bv762153[24] x17) (bvmul bv11937240[24] x19)))))))))))
	              bv6558993[24]))
         (and (not (= (bvadd (bvmul bv9531958[24] x2) 
                        (bvadd (bvmul bv1560466[24] x6) 
                        (bvadd (bvmul bv12441431[24] x8) 
                        (bvadd (bvmul bv9032206[24] x9) 
                        (bvadd (bvmul bv16427707[24] x11) 
                        (bvadd (bvmul bv9529576[24] x12) 
                        (bvadd (bvmul bv16548689[24] x13) 
                        (bvadd (bvmul bv8264404[24] x14) 
                        (bvadd (bvmul bv7434599[24] x15) 
                        (bvadd (bvmul bv13443107[24] x16) 
                        (bvadd (bvmul bv15138300[24] x17) (bvmul bv15686340[24] x18))))))))))))
	              bv11762603[24]))
         (and (not (= (bvadd (bvmul bv14788494[24] x1) 
                        (bvadd (bvmul bv16643352[24] x2) 
                        (bvadd (bvmul bv15650938[24] x3) 
                        (bvadd (bvmul bv11315155[24] x5) 
                        (bvadd (bvmul bv5147238[24] x6) 
                        (bvadd (bvmul bv2506601[24] x11) 
                        (bvadd (bvmul bv10771006[24] x13) 
                        (bvadd (bvmul bv2797196[24] x14) 
                        (bvadd (bvmul bv9443351[24] x15) 
                        (bvadd (bvmul bv9098634[24] x16) 
                        (bvadd (bvmul bv11468814[24] x18) (bvmul bv1419710[24] x19))))))))))))
	              bv6593739[24]))
         (and (not (= (bvadd (bvmul bv15510182[24] x0) 
                        (bvadd (bvmul bv6619900[24] x3) 
                        (bvadd (bvmul bv16246187[24] x5) 
                        (bvadd (bvmul bv9282084[24] x6) 
                        (bvadd (bvmul bv9607115[24] x8) 
                        (bvadd (bvmul bv168400[24] x9) 
                        (bvadd (bvmul bv9987898[24] x10) 
                        (bvadd (bvmul bv5703863[24] x11) 
                        (bvadd (bvmul bv4899741[24] x12) 
                        (bvadd (bvmul bv7932424[24] x13) 
                        (bvadd (bvmul bv16416484[24] x14) 
                        (bvadd (bvmul bv12671141[24] x16) (bvmul bv6937079[24] x18)))))))))))))
	              bv4966377[24]))
         (and (not (= (bvadd (bvmul bv16525461[24] x0) 
                        (bvadd (bvmul bv3032920[24] x1) 
                        (bvadd (bvmul bv11055250[24] x2) 
                        (bvadd (bvmul bv1174961[24] x3) 
                        (bvadd (bvmul bv10336002[24] x4) 
                        (bvadd (bvmul bv11185684[24] x5) 
                        (bvadd (bvmul bv3708482[24] x6) 
                        (bvadd (bvmul bv404247[24] x9) 
                        (bvadd (bvmul bv7782345[24] x10) 
                        (bvadd (bvmul bv15477472[24] x14) 
                        (bvadd (bvmul bv13983972[24] x16) 
                        (bvadd (bvmul bv15875695[24] x17) (bvmul bv15623942[24] x19)))))))))))))
	              bv13759413[24]))
         (and (not (= (bvadd (bvmul bv7516819[24] x0) 
                        (bvadd (bvmul bv4597831[24] x3) 
                        (bvadd (bvmul bv11784595[24] x6) 
                        (bvadd (bvmul bv15817471[24] x9) 
                        (bvadd (bvmul bv6822601[24] x11) 
                        (bvadd (bvmul bv16027809[24] x12) 
                        (bvadd (bvmul bv5691923[24] x13) 
                        (bvadd (bvmul bv782542[24] x14) 
                        (bvadd (bvmul bv11035162[24] x16) (bvmul bv3049443[24] x18))))))))))
	              bv11090158[24]))
         (and (not (= (bvadd (bvmul bv8110875[24] x0) 
                        (bvadd (bvmul bv9357193[24] x9) 
                        (bvadd (bvmul bv11019909[24] x12) 
                        (bvadd (bvmul bv8530482[24] x13) 
                        (bvadd (bvmul bv12457070[24] x14) 
                        (bvadd (bvmul bv8221356[24] x15) (bvmul bv94039[24] x16)))))))
	              bv709711[24]))
         (and (not (= (bvadd (bvmul bv2435423[24] x0) 
                        (bvadd (bvmul bv8643649[24] x1) 
                        (bvadd (bvmul bv14150261[24] x2) 
                        (bvadd (bvmul bv10571739[24] x3) 
                        (bvadd (bvmul bv10275795[24] x6) 
                        (bvadd (bvmul bv13811287[24] x10) 
                        (bvadd (bvmul bv2910639[24] x11) 
                        (bvadd (bvmul bv7773149[24] x12) 
                        (bvadd (bvmul bv7703996[24] x13) (bvmul bv7153747[24] x19))))))))))
	              bv8713963[24]))
         (and (not (= (bvadd (bvmul bv3736618[24] x1) 
                        (bvadd (bvmul bv3358254[24] x2) 
                        (bvadd (bvmul bv13929994[24] x4) 
                        (bvadd (bvmul bv10446603[24] x6) 
                        (bvadd (bvmul bv6655737[24] x7) 
                        (bvadd (bvmul bv1785289[24] x8) 
                        (bvadd (bvmul bv13124496[24] x9) 
                        (bvadd (bvmul bv14638250[24] x13) 
                        (bvadd (bvmul bv14019447[24] x14) 
                        (bvadd (bvmul bv15128554[24] x18) (bvmul bv2427319[24] x19)))))))))))
	              bv3785083[24]))
         (and (not (= (bvadd (bvmul bv3031349[24] x5) 
                        (bvadd (bvmul bv12614533[24] x6) 
                        (bvadd (bvmul bv11634055[24] x7) 
                        (bvadd (bvmul bv13419344[24] x9) (bvmul bv14447300[24] x11)))))
	              bv6268036[24]))
         (and (not (= (bvadd (bvmul bv1846793[24] x0) 
                        (bvadd (bvmul bv15761877[24] x1) 
                        (bvadd (bvmul bv2787068[24] x7) 
                        (bvadd (bvmul bv8349529[24] x8) 
                        (bvadd (bvmul bv7330154[24] x9) 
                        (bvadd (bvmul bv2156967[24] x13) 
                        (bvadd (bvmul bv14295799[24] x14) 
                        (bvadd (bvmul bv3989777[24] x16) (bvmul bv7703201[24] x18)))))))))
	              bv16741506[24]))
         (and (not (= (bvadd (bvmul bv4412595[24] x0) 
                        (bvadd (bvmul bv3397258[24] x2) 
                        (bvadd (bvmul bv8545859[24] x4) 
                        (bvadd (bvmul bv5710767[24] x5) 
                        (bvadd (bvmul bv12540378[24] x8) 
                        (bvadd (bvmul bv6893122[24] x9) 
                        (bvadd (bvmul bv16689002[24] x10) 
                        (bvadd (bvmul bv15595246[24] x11) 
                        (bvadd (bvmul bv6722353[24] x14) (bvmul bv15626587[24] x17))))))))))
	              bv15590878[24]))
         (and (not (= (bvadd (bvmul bv8067708[24] x4) 
                        (bvadd (bvmul bv2390152[24] x5) 
                        (bvadd (bvmul bv1313697[24] x13) 
                        (bvadd (bvmul bv13245560[24] x18) (bvmul bv13679483[24] x19)))))
	              bv13571954[24]))
         (and (not (= (bvadd (bvmul bv4824335[24] x1) 
                        (bvadd (bvmul bv11342518[24] x2) 
                        (bvadd (bvmul bv1332884[24] x3) 
                        (bvadd (bvmul bv11664777[24] x4) 
                        (bvadd (bvmul bv3257759[24] x5) 
                        (bvadd (bvmul bv14344545[24] x6) 
                        (bvadd (bvmul bv57379[24] x7) 
                        (bvadd (bvmul bv5060640[24] x9) 
                        (bvadd (bvmul bv57937[24] x17) (bvmul bv13737420[24] x19))))))))))
	              bv1201008[24]))
         (and (not (= (bvadd (bvmul bv6025343[24] x1) 
                        (bvadd (bvmul bv4054364[24] x2) 
                        (bvadd (bvmul bv12545000[24] x3) 
                        (bvadd (bvmul bv10960859[24] x4) 
                        (bvadd (bvmul bv5635326[24] x9) 
                        (bvadd (bvmul bv8762224[24] x10) 
                        (bvadd (bvmul bv15930338[24] x11) 
                        (bvadd (bvmul bv10875777[24] x12) 
                        (bvadd (bvmul bv14897240[24] x15) 
                        (bvadd (bvmul bv16469918[24] x16) (bvmul bv3727303[24] x19)))))))))))
	              bv5511921[24]))
         (and (not (= (bvadd (bvmul bv16724037[24] x1) 
                        (bvadd (bvmul bv9048729[24] x2) 
                        (bvadd (bvmul bv9440749[24] x3) 
                        (bvadd (bvmul bv8810320[24] x6) 
                        (bvadd (bvmul bv6376240[24] x7) 
                        (bvadd (bvmul bv1386921[24] x8) 
                        (bvadd (bvmul bv8364399[24] x9) 
                        (bvadd (bvmul bv2462962[24] x11) 
                        (bvadd (bvmul bv2097729[24] x13) 
                        (bvadd (bvmul bv15220557[24] x18) (bvmul bv16188883[24] x19)))))))))))
	              bv4585311[24]))
         (and (not (= (bvadd (bvmul bv14781646[24] x1) 
                        (bvadd (bvmul bv11850313[24] x2) 
                        (bvadd (bvmul bv2610889[24] x5) 
                        (bvadd (bvmul bv7236180[24] x6) 
                        (bvadd (bvmul bv6831058[24] x7) 
                        (bvadd (bvmul bv7348380[24] x8) 
                        (bvadd (bvmul bv9163147[24] x9) 
                        (bvadd (bvmul bv881205[24] x10) 
                        (bvadd (bvmul bv8996168[24] x11) 
                        (bvadd (bvmul bv4769367[24] x14) 
                        (bvadd (bvmul bv8387221[24] x15) 
                        (bvadd (bvmul bv7798890[24] x17) (bvmul bv7157381[24] x19)))))))))))))
	              bv5802452[24]))
         (and (not (= (bvadd (bvmul bv2230479[24] x0) 
                        (bvadd (bvmul bv11066793[24] x1) 
                        (bvadd (bvmul bv3452205[24] x3) 
                        (bvadd (bvmul bv16599647[24] x6) 
                        (bvadd (bvmul bv8701507[24] x7) 
                        (bvadd (bvmul bv15078049[24] x8) 
                        (bvadd (bvmul bv8870874[24] x9) 
                        (bvadd (bvmul bv14375558[24] x11) 
                        (bvadd (bvmul bv13394484[24] x14) 
                        (bvadd (bvmul bv34973[24] x18) (bvmul bv589766[24] x19)))))))))))
	              bv10749461[24]))
         (and (not (= (bvadd (bvmul bv13837399[24] x0) 
                        (bvadd (bvmul bv12918707[24] x2) 
                        (bvadd (bvmul bv5743716[24] x3) 
                        (bvadd (bvmul bv14551727[24] x8) 
                        (bvadd (bvmul bv16065947[24] x12) 
                        (bvadd (bvmul bv16619746[24] x14) 
                        (bvadd (bvmul bv10071905[24] x15) (bvmul bv15173568[24] x18))))))))
	              bv9284391[24]))
         (and (not (= (bvadd (bvmul bv12717293[24] x0) 
                        (bvadd (bvmul bv979119[24] x2) 
                        (bvadd (bvmul bv9470365[24] x4) 
                        (bvadd (bvmul bv13174941[24] x5) 
                        (bvadd (bvmul bv15388232[24] x6) 
                        (bvadd (bvmul bv5389249[24] x7) 
                        (bvadd (bvmul bv397630[24] x8) 
                        (bvadd (bvmul bv3030917[24] x9) 
                        (bvadd (bvmul bv8182282[24] x10) 
                        (bvadd (bvmul bv11633853[24] x15) 
                        (bvadd (bvmul bv10030207[24] x17) 
                        (bvadd (bvmul bv5812356[24] x18) (bvmul bv5830641[24] x19)))))))))))))
	              bv12123553[24]))
         (and (not (= (bvadd (bvmul bv14027643[24] x2) 
                        (bvadd (bvmul bv9246790[24] x3) 
                        (bvadd (bvmul bv10970572[24] x4) 
                        (bvadd (bvmul bv16359821[24] x6) 
                        (bvadd (bvmul bv8476156[24] x8) 
                        (bvadd (bvmul bv14548904[24] x11) 
                        (bvadd (bvmul bv3005554[24] x17) 
                        (bvadd (bvmul bv4797641[24] x18) (bvmul bv5031995[24] x19)))))))))
	              bv10628283[24]))
         (and (not (= (bvadd (bvmul bv660828[24] x1) 
                        (bvadd (bvmul bv993212[24] x5) 
                        (bvadd (bvmul bv3916340[24] x6) 
                        (bvadd (bvmul bv10716918[24] x7) 
                        (bvadd (bvmul bv6096943[24] x11) 
                        (bvadd (bvmul bv13757418[24] x13) 
                        (bvadd (bvmul bv189971[24] x14) 
                        (bvadd (bvmul bv11874265[24] x16) 
                        (bvadd (bvmul bv16671907[24] x18) (bvmul bv14013460[24] x19))))))))))
	              bv10522975[24]))
         (and (not (= (bvadd (bvmul bv6257251[24] x2) 
                        (bvadd (bvmul bv11347544[24] x3) 
                        (bvadd (bvmul bv5704642[24] x5) 
                        (bvadd (bvmul bv16421560[24] x7) 
                        (bvadd (bvmul bv13516663[24] x8) 
                        (bvadd (bvmul bv2836391[24] x10) 
                        (bvadd (bvmul bv16593810[24] x12) 
                        (bvadd (bvmul bv9666902[24] x13) 
                        (bvadd (bvmul bv4763953[24] x15) (bvmul bv2953243[24] x16))))))))))
	              bv15181621[24]))
         (and (not (= (bvadd (bvmul bv7520362[24] x0) 
                        (bvadd (bvmul bv390112[24] x1) 
                        (bvadd (bvmul bv8938019[24] x6) 
                        (bvadd (bvmul bv9507528[24] x7) 
                        (bvadd (bvmul bv11567734[24] x9) 
                        (bvadd (bvmul bv15925024[24] x11) 
                        (bvadd (bvmul bv13261209[24] x12) 
                        (bvadd (bvmul bv5190532[24] x13) 
                        (bvadd (bvmul bv7679998[24] x14) 
                        (bvadd (bvmul bv9496120[24] x15) 
                        (bvadd (bvmul bv14613131[24] x16) 
                        (bvadd (bvmul bv13017537[24] x18) (bvmul bv1565879[24] x19)))))))))))))
	              bv5828533[24]))
         (and (not (= (bvadd (bvmul bv6984956[24] x0) 
                        (bvadd (bvmul bv14966774[24] x1) 
                        (bvadd (bvmul bv3073041[24] x2) 
                        (bvadd (bvmul bv13680185[24] x5) 
                        (bvadd (bvmul bv15663144[24] x8) 
                        (bvadd (bvmul bv12147139[24] x10) 
                        (bvadd (bvmul bv11129904[24] x13) 
                        (bvadd (bvmul bv4624428[24] x14) (bvmul bv4471770[24] x18)))))))))
	              bv597327[24]))
         (and (not (= (bvadd (bvmul bv12939545[24] x0) 
                        (bvadd (bvmul bv2101029[24] x3) 
                        (bvadd (bvmul bv2386559[24] x6) 
                        (bvadd (bvmul bv12707080[24] x7) 
                        (bvadd (bvmul bv14886537[24] x8) 
                        (bvadd (bvmul bv16276550[24] x9) 
                        (bvadd (bvmul bv6962934[24] x10) 
                        (bvadd (bvmul bv2091242[24] x12) 
                        (bvadd (bvmul bv4196413[24] x13) 
                        (bvadd (bvmul bv12300788[24] x16) (bvmul bv1916638[24] x19)))))))))))
	              bv10422719[24]))
         (and (not (= (bvadd (bvmul bv9498922[24] x0) 
                        (bvadd (bvmul bv3493675[24] x1) 
                        (bvadd (bvmul bv3738871[24] x2) 
                        (bvadd (bvmul bv1464904[24] x8) 
                        (bvadd (bvmul bv15382416[24] x9) 
                        (bvadd (bvmul bv3019883[24] x10) 
                        (bvadd (bvmul bv9599250[24] x14) (bvmul bv1144236[24] x15))))))))
	              bv3552611[24]))
         (and (bvule      (bvadd (bvmul bv12694397[24] x1) 
                        (bvadd (bvmul bv12950699[24] x2) 
                        (bvadd (bvmul bv8701846[24] x3) 
                        (bvadd (bvmul bv4384002[24] x4) 
                        (bvadd (bvmul bv6037786[24] x5) 
                        (bvadd (bvmul bv5143653[24] x7) 
                        (bvadd (bvmul bv11311238[24] x8) 
                        (bvadd (bvmul bv5303298[24] x11) 
                        (bvadd (bvmul bv2665033[24] x12) 
                        (bvadd (bvmul bv5303907[24] x15) (bvmul bv8617598[24] x19)))))))))))
	              bv12147640[24])
         (and (bvule      (bvadd (bvmul bv4534780[24] x0) 
                        (bvadd (bvmul bv8067614[24] x1) 
                        (bvadd (bvmul bv14017756[24] x6) 
                        (bvadd (bvmul bv13664374[24] x7) 
                        (bvadd (bvmul bv8198398[24] x9) 
                        (bvadd (bvmul bv5752306[24] x11) 
                        (bvadd (bvmul bv5180581[24] x12) 
                        (bvadd (bvmul bv15596019[24] x13) 
                        (bvadd (bvmul bv11196943[24] x17) (bvmul bv11037781[24] x18))))))))))
	              bv7260592[24])
         (and (bvule      (bvadd (bvmul bv14222310[24] x2) 
                        (bvadd (bvmul bv907076[24] x3) 
                        (bvadd (bvmul bv2665607[24] x6) 
                        (bvadd (bvmul bv5049802[24] x8) 
                        (bvadd (bvmul bv4402720[24] x9) 
                        (bvadd (bvmul bv6607196[24] x10) 
                        (bvadd (bvmul bv5841986[24] x11) 
                        (bvadd (bvmul bv1795152[24] x12) 
                        (bvadd (bvmul bv606715[24] x16) (bvmul bv5384163[24] x19))))))))))
	              bv11157048[24])
              (bvule      (bvadd (bvmul bv10889959[24] x1) 
                        (bvadd (bvmul bv7696802[24] x2) 
                        (bvadd (bvmul bv3892141[24] x3) 
                        (bvadd (bvmul bv11114197[24] x4) 
                        (bvadd (bvmul bv7318519[24] x6) 
                        (bvadd (bvmul bv7210625[24] x7) 
                        (bvadd (bvmul bv6013189[24] x8) 
                        (bvadd (bvmul bv5099052[24] x9) 
                        (bvadd (bvmul bv8828384[24] x10) 
                        (bvadd (bvmul bv11273630[24] x12) 
                        (bvadd (bvmul bv8522256[24] x13) 
                        (bvadd (bvmul bv390935[24] x14) (bvmul bv6747629[24] x15)))))))))))))
	              bv911289[24])
	 )))))))))))))))))))))))))))))))))))))))

)
